p cnf 0 0
c K couleurs
5 9 13 17 0
6 10 14 18 0
7 11 15 19 0
8 12 16 20 0
1 0
-2 0
3 0
-4 0
-6 0
-7 0
-8 0
-11 0
-12 0
-16 0
c 1 color par vertex et au plus 1
5 6 7 8 0
-6 -5 0
-7 -5 0
-8 -5 0
-7 -6 0
-8 -6 0
-8 -7 0
9 10 11 12 0
-10 -9 0
-11 -9 0
-12 -9 0
-11 -10 0
-12 -10 0
-12 -11 0
13 14 15 16 0
-14 -13 0
-15 -13 0
-16 -13 0
-15 -14 0
-16 -14 0
-16 -15 0
17 18 19 20 0
-18 -17 0
-19 -17 0
-20 -17 0
-19 -18 0
-20 -18 0
-20 -19 0
c gc coresp to G
-5 -10 21 0
-5 -10 -22 1 0
-5 -10 22 -1 0
-5 -11 23 0
-5 -11 -24 1 0
-5 -11 24 -1 0
-5 -12 25 0
-5 -12 -26 1 0
-5 -12 26 -1 0
-6 -9 21 0
-6 -9 -22 1 0
-6 -9 22 -1 0
-6 -11 27 0
-6 -11 -28 1 0
-6 -11 28 -1 0
-6 -12 29 0
-6 -12 -30 1 0
-6 -12 30 -1 0
-7 -9 23 0
-7 -9 -24 1 0
-7 -9 24 -1 0
-7 -10 27 0
-7 -10 -28 1 0
-7 -10 28 -1 0
-7 -12 31 0
-7 -12 -32 1 0
-7 -12 32 -1 0
-8 -9 25 0
-8 -9 -26 1 0
-8 -9 26 -1 0
-8 -10 29 0
-8 -10 -30 1 0
-8 -10 30 -1 0
-8 -11 31 0
-8 -11 -32 1 0
-8 -11 32 -1 0
-9 -14 21 0
-9 -14 -22 2 0
-9 -14 22 -2 0
-9 -15 23 0
-9 -15 -24 2 0
-9 -15 24 -2 0
-9 -16 25 0
-9 -16 -26 2 0
-9 -16 26 -2 0
-10 -13 21 0
-10 -13 -22 2 0
-10 -13 22 -2 0
-10 -15 27 0
-10 -15 -28 2 0
-10 -15 28 -2 0
-10 -16 29 0
-10 -16 -30 2 0
-10 -16 30 -2 0
-11 -13 23 0
-11 -13 -24 2 0
-11 -13 24 -2 0
-11 -14 27 0
-11 -14 -28 2 0
-11 -14 28 -2 0
-11 -16 31 0
-11 -16 -32 2 0
-11 -16 32 -2 0
-12 -13 25 0
-12 -13 -26 2 0
-12 -13 26 -2 0
-12 -14 29 0
-12 -14 -30 2 0
-12 -14 30 -2 0
-12 -15 31 0
-12 -15 -32 2 0
-12 -15 32 -2 0
-13 -18 21 0
-13 -18 -22 3 0
-13 -18 22 -3 0
-13 -19 23 0
-13 -19 -24 3 0
-13 -19 24 -3 0
-13 -20 25 0
-13 -20 -26 3 0
-13 -20 26 -3 0
-14 -17 21 0
-14 -17 -22 3 0
-14 -17 22 -3 0
-14 -19 27 0
-14 -19 -28 3 0
-14 -19 28 -3 0
-14 -20 29 0
-14 -20 -30 3 0
-14 -20 30 -3 0
-15 -17 23 0
-15 -17 -24 3 0
-15 -17 24 -3 0
-15 -18 27 0
-15 -18 -28 3 0
-15 -18 28 -3 0
-15 -20 31 0
-15 -20 -32 3 0
-15 -20 32 -3 0
-16 -17 25 0
-16 -17 -26 3 0
-16 -17 26 -3 0
-16 -18 29 0
-16 -18 -30 3 0
-16 -18 30 -3 0
-16 -19 31 0
-16 -19 -32 3 0
-16 -19 32 -3 0
-17 -6 21 0
-17 -6 -22 4 0
-17 -6 22 -4 0
-17 -7 23 0
-17 -7 -24 4 0
-17 -7 24 -4 0
-17 -8 25 0
-17 -8 -26 4 0
-17 -8 26 -4 0
-18 -5 21 0
-18 -5 -22 4 0
-18 -5 22 -4 0
-18 -7 27 0
-18 -7 -28 4 0
-18 -7 28 -4 0
-18 -8 29 0
-18 -8 -30 4 0
-18 -8 30 -4 0
-19 -5 23 0
-19 -5 -24 4 0
-19 -5 24 -4 0
-19 -6 27 0
-19 -6 -28 4 0
-19 -6 28 -4 0
-19 -8 31 0
-19 -8 -32 4 0
-19 -8 32 -4 0
-20 -5 25 0
-20 -5 -26 4 0
-20 -5 26 -4 0
-20 -6 29 0
-20 -6 -30 4 0
-20 -6 30 -4 0
-20 -7 31 0
-20 -7 -32 4 0
-20 -7 32 -4 0
c X
-34 5 0
-33 5 0
-34 10 0
-33 10 0
-34 1 0
-33 -1 0
34 -5 -10 -1 0
33 -5 -10 1 0
-36 5 0
-35 5 0
-36 11 0
-35 11 0
-36 1 0
-35 -1 0
36 -5 -11 -1 0
35 -5 -11 1 0
-38 5 0
-37 5 0
-38 12 0
-37 12 0
-38 1 0
-37 -1 0
38 -5 -12 -1 0
37 -5 -12 1 0
-40 6 0
-39 6 0
-40 9 0
-39 9 0
-40 1 0
-39 -1 0
40 -6 -9 -1 0
39 -6 -9 1 0
-42 6 0
-41 6 0
-42 11 0
-41 11 0
-42 1 0
-41 -1 0
42 -6 -11 -1 0
41 -6 -11 1 0
-44 6 0
-43 6 0
-44 12 0
-43 12 0
-44 1 0
-43 -1 0
44 -6 -12 -1 0
43 -6 -12 1 0
-46 7 0
-45 7 0
-46 9 0
-45 9 0
-46 1 0
-45 -1 0
46 -7 -9 -1 0
45 -7 -9 1 0
-48 7 0
-47 7 0
-48 10 0
-47 10 0
-48 1 0
-47 -1 0
48 -7 -10 -1 0
47 -7 -10 1 0
-50 7 0
-49 7 0
-50 12 0
-49 12 0
-50 1 0
-49 -1 0
50 -7 -12 -1 0
49 -7 -12 1 0
-52 8 0
-51 8 0
-52 9 0
-51 9 0
-52 1 0
-51 -1 0
52 -8 -9 -1 0
51 -8 -9 1 0
-54 8 0
-53 8 0
-54 10 0
-53 10 0
-54 1 0
-53 -1 0
54 -8 -10 -1 0
53 -8 -10 1 0
-56 8 0
-55 8 0
-56 11 0
-55 11 0
-56 1 0
-55 -1 0
56 -8 -11 -1 0
55 -8 -11 1 0
-58 9 0
-57 9 0
-58 14 0
-57 14 0
-58 2 0
-57 -2 0
58 -9 -14 -2 0
57 -9 -14 2 0
-60 9 0
-59 9 0
-60 15 0
-59 15 0
-60 2 0
-59 -2 0
60 -9 -15 -2 0
59 -9 -15 2 0
-62 9 0
-61 9 0
-62 16 0
-61 16 0
-62 2 0
-61 -2 0
62 -9 -16 -2 0
61 -9 -16 2 0
-64 10 0
-63 10 0
-64 13 0
-63 13 0
-64 2 0
-63 -2 0
64 -10 -13 -2 0
63 -10 -13 2 0
-66 10 0
-65 10 0
-66 15 0
-65 15 0
-66 2 0
-65 -2 0
66 -10 -15 -2 0
65 -10 -15 2 0
-68 10 0
-67 10 0
-68 16 0
-67 16 0
-68 2 0
-67 -2 0
68 -10 -16 -2 0
67 -10 -16 2 0
-70 11 0
-69 11 0
-70 13 0
-69 13 0
-70 2 0
-69 -2 0
70 -11 -13 -2 0
69 -11 -13 2 0
-72 11 0
-71 11 0
-72 14 0
-71 14 0
-72 2 0
-71 -2 0
72 -11 -14 -2 0
71 -11 -14 2 0
-74 11 0
-73 11 0
-74 16 0
-73 16 0
-74 2 0
-73 -2 0
74 -11 -16 -2 0
73 -11 -16 2 0
-76 12 0
-75 12 0
-76 13 0
-75 13 0
-76 2 0
-75 -2 0
76 -12 -13 -2 0
75 -12 -13 2 0
-78 12 0
-77 12 0
-78 14 0
-77 14 0
-78 2 0
-77 -2 0
78 -12 -14 -2 0
77 -12 -14 2 0
-80 12 0
-79 12 0
-80 15 0
-79 15 0
-80 2 0
-79 -2 0
80 -12 -15 -2 0
79 -12 -15 2 0
-82 13 0
-81 13 0
-82 18 0
-81 18 0
-82 3 0
-81 -3 0
82 -13 -18 -3 0
81 -13 -18 3 0
-84 13 0
-83 13 0
-84 19 0
-83 19 0
-84 3 0
-83 -3 0
84 -13 -19 -3 0
83 -13 -19 3 0
-86 13 0
-85 13 0
-86 20 0
-85 20 0
-86 3 0
-85 -3 0
86 -13 -20 -3 0
85 -13 -20 3 0
-88 14 0
-87 14 0
-88 17 0
-87 17 0
-88 3 0
-87 -3 0
88 -14 -17 -3 0
87 -14 -17 3 0
-90 14 0
-89 14 0
-90 19 0
-89 19 0
-90 3 0
-89 -3 0
90 -14 -19 -3 0
89 -14 -19 3 0
-92 14 0
-91 14 0
-92 20 0
-91 20 0
-92 3 0
-91 -3 0
92 -14 -20 -3 0
91 -14 -20 3 0
-94 15 0
-93 15 0
-94 17 0
-93 17 0
-94 3 0
-93 -3 0
94 -15 -17 -3 0
93 -15 -17 3 0
-96 15 0
-95 15 0
-96 18 0
-95 18 0
-96 3 0
-95 -3 0
96 -15 -18 -3 0
95 -15 -18 3 0
-98 15 0
-97 15 0
-98 20 0
-97 20 0
-98 3 0
-97 -3 0
98 -15 -20 -3 0
97 -15 -20 3 0
-100 16 0
-99 16 0
-100 17 0
-99 17 0
-100 3 0
-99 -3 0
100 -16 -17 -3 0
99 -16 -17 3 0
-102 16 0
-101 16 0
-102 18 0
-101 18 0
-102 3 0
-101 -3 0
102 -16 -18 -3 0
101 -16 -18 3 0
-104 16 0
-103 16 0
-104 19 0
-103 19 0
-104 3 0
-103 -3 0
104 -16 -19 -3 0
103 -16 -19 3 0
-106 17 0
-105 17 0
-106 6 0
-105 6 0
-106 4 0
-105 -4 0
106 -17 -6 -4 0
105 -17 -6 4 0
-108 17 0
-107 17 0
-108 7 0
-107 7 0
-108 4 0
-107 -4 0
108 -17 -7 -4 0
107 -17 -7 4 0
-110 17 0
-109 17 0
-110 8 0
-109 8 0
-110 4 0
-109 -4 0
110 -17 -8 -4 0
109 -17 -8 4 0
-112 18 0
-111 18 0
-112 5 0
-111 5 0
-112 4 0
-111 -4 0
112 -18 -5 -4 0
111 -18 -5 4 0
-114 18 0
-113 18 0
-114 7 0
-113 7 0
-114 4 0
-113 -4 0
114 -18 -7 -4 0
113 -18 -7 4 0
-116 18 0
-115 18 0
-116 8 0
-115 8 0
-116 4 0
-115 -4 0
116 -18 -8 -4 0
115 -18 -8 4 0
-118 19 0
-117 19 0
-118 5 0
-117 5 0
-118 4 0
-117 -4 0
118 -19 -5 -4 0
117 -19 -5 4 0
-120 19 0
-119 19 0
-120 6 0
-119 6 0
-120 4 0
-119 -4 0
120 -19 -6 -4 0
119 -19 -6 4 0
-122 19 0
-121 19 0
-122 8 0
-121 8 0
-122 4 0
-121 -4 0
122 -19 -8 -4 0
121 -19 -8 4 0
-124 20 0
-123 20 0
-124 5 0
-123 5 0
-124 4 0
-123 -4 0
124 -20 -5 -4 0
123 -20 -5 4 0
-126 20 0
-125 20 0
-126 6 0
-125 6 0
-126 4 0
-125 -4 0
126 -20 -6 -4 0
125 -20 -6 4 0
-128 20 0
-127 20 0
-128 7 0
-127 7 0
-128 4 0
-127 -4 0
128 -20 -7 -4 0
127 -20 -7 4 0
c x suite
-21 -22 34 40 58 64 82 88 106 112 0
-23 -24 36 46 60 70 84 94 108 118 0
-25 -26 38 52 62 76 86 100 110 124 0
-27 -28 42 48 66 72 90 96 114 120 0
-29 -30 44 54 68 78 92 102 116 126 0
-31 -32 50 56 74 80 98 104 122 128 0
-21 22 33 39 57 63 81 87 105 111 0
-23 24 35 45 59 69 83 93 107 117 0
-25 26 37 51 61 75 85 99 109 123 0
-27 28 41 47 65 71 89 95 113 119 0
-29 30 43 53 67 77 91 101 115 125 0
-31 32 49 55 73 79 97 103 121 127 0
c proper colo
-5 -9 0
-6 -10 0
-7 -11 0
-8 -12 0
-9 -13 0
-10 -14 0
-11 -15 0
-12 -16 0
-13 -17 0
-14 -18 0
-15 -19 0
-16 -20 0
-17 -5 0
-18 -6 0
-19 -7 0
-20 -8 0
21 129 130 0
23 131 132 0
25 133 134 0
27 135 136 0
29 137 138 0
31 139 140 0
-129 23 0
-129 27 0
-129 24 28 0
-129 -24 -28 0
129 -23 -27 24 -28 0
129 -23 -27 -24 28 0
-130 25 0
-130 29 0
-130 26 30 0
-130 -26 -30 0
130 -25 -29 26 -30 0
130 -25 -29 -26 30 0
-131 21 0
-131 27 0
-131 22 28 0
-131 -22 -28 0
131 -21 -27 22 -28 0
131 -21 -27 -22 28 0
-132 25 0
-132 31 0
-132 26 32 0
-132 -26 -32 0
132 -25 -31 26 -32 0
132 -25 -31 -26 32 0
-133 21 0
-133 29 0
-133 22 30 0
-133 -22 -30 0
133 -21 -29 22 -30 0
133 -21 -29 -22 30 0
-134 23 0
-134 31 0
-134 24 32 0
-134 -24 -32 0
134 -23 -31 24 -32 0
134 -23 -31 -24 32 0
-135 21 0
-135 23 0
-135 22 24 0
-135 -22 -24 0
135 -21 -23 22 -24 0
135 -21 -23 -22 24 0
-136 29 0
-136 31 0
-136 30 32 0
-136 -30 -32 0
136 -29 -31 30 -32 0
136 -29 -31 -30 32 0
-137 21 0
-137 25 0
-137 22 26 0
-137 -22 -26 0
137 -21 -25 22 -26 0
137 -21 -25 -22 26 0
-138 27 0
-138 31 0
-138 28 32 0
-138 -28 -32 0
138 -27 -31 28 -32 0
138 -27 -31 -28 32 0
-139 23 0
-139 25 0
-139 24 26 0
-139 -24 -26 0
139 -23 -25 24 -26 0
139 -23 -25 -24 26 0
-140 27 0
-140 29 0
-140 28 30 0
-140 -28 -30 0
140 -27 -29 28 -30 0
140 -27 -29 -28 30 0
